predicate jacop_subcircuit(array [int] of var int: x);
array [1..3] of int: X_INTRODUCED_58 = [1,-1,-1];
array [1..10] of int: X_INTRODUCED_69 = [0,10,11,6,0,0,0,0,0,0];
array [1..2] of int: X_INTRODUCED_71 = [-1,1];
array [1..10] of int: X_INTRODUCED_72 = [10,0,5,8,0,0,0,0,0,0];
array [1..10] of int: X_INTRODUCED_74 = [11,5,0,0,3,5,0,0,0,0];
array [1..10] of int: X_INTRODUCED_76 = [6,8,0,0,2,6,7,0,0,0];
array [1..10] of int: X_INTRODUCED_78 = [0,0,3,2,0,0,12,0,0,0];
array [1..10] of int: X_INTRODUCED_80 = [0,0,5,6,0,0,0,14,0,0];
array [1..10] of int: X_INTRODUCED_82 = [0,0,0,7,12,0,0,5,3,0];
array [1..10] of int: X_INTRODUCED_84 = [0,0,0,0,0,14,5,0,1,9];
array [1..10] of int: X_INTRODUCED_86 = [0,0,0,0,0,0,3,1,0,2];
array [1..10] of int: X_INTRODUCED_88 = [0,0,0,0,0,0,0,9,2,0];
array [1..3] of int: X_INTRODUCED_93 = [1,-1,1];
var 2..4: X_INTRODUCED_0;
var 1..4: X_INTRODUCED_1;
var {1,2,3,5,6}: X_INTRODUCED_2;
var {1,2,4,5,6,7}: X_INTRODUCED_3;
var {3,4,5,7}: X_INTRODUCED_4;
var {3,4,6,8}: X_INTRODUCED_5;
var {4,5,7,8,9}: X_INTRODUCED_6;
var 6..10: X_INTRODUCED_7;
var 7..10: X_INTRODUCED_8;
var {1,8,9}: X_INTRODUCED_9;
var 0..10: X_INTRODUCED_11;
var 0..10: X_INTRODUCED_12;
var 0..10: X_INTRODUCED_13;
var 0..10: X_INTRODUCED_14;
var 0..10: X_INTRODUCED_15;
var 0..10: X_INTRODUCED_16;
var 0..10: X_INTRODUCED_17;
var 0..10: X_INTRODUCED_18;
var 0..10: X_INTRODUCED_19;
var 0..10: X_INTRODUCED_20;
var 0..10: X_INTRODUCED_21;
var 0..10: X_INTRODUCED_22;
var 0..10: X_INTRODUCED_23;
var 0..10: X_INTRODUCED_24;
var 0..10: X_INTRODUCED_25;
var 0..10: X_INTRODUCED_26;
var 0..10: X_INTRODUCED_27;
var 0..10: X_INTRODUCED_28;
var 0..10: X_INTRODUCED_29;
var 0..10: X_INTRODUCED_30:: is_defined_var;
var 0..10: X_INTRODUCED_31:: is_defined_var;
var 0..10: X_INTRODUCED_32:: is_defined_var;
var 0..10: X_INTRODUCED_33:: is_defined_var;
var 0..10: X_INTRODUCED_34:: is_defined_var;
var 0..10: X_INTRODUCED_35:: is_defined_var;
var 0..10: X_INTRODUCED_36:: is_defined_var;
var 0..10: X_INTRODUCED_37:: is_defined_var;
var 0..10: X_INTRODUCED_38:: is_defined_var;
var 0..10: X_INTRODUCED_39:: is_defined_var;
var 0..1030: cost:: is_defined_var;
var 0..11: X_INTRODUCED_70 ::var_is_introduced :: is_defined_var;
var 0..10: X_INTRODUCED_73 ::var_is_introduced :: is_defined_var;
var 0..11: X_INTRODUCED_75 ::var_is_introduced :: is_defined_var;
var 0..8: X_INTRODUCED_77 ::var_is_introduced :: is_defined_var;
var 0..12: X_INTRODUCED_79 ::var_is_introduced :: is_defined_var;
var 0..14: X_INTRODUCED_81 ::var_is_introduced :: is_defined_var;
var 0..12: X_INTRODUCED_83 ::var_is_introduced :: is_defined_var;
var 0..14: X_INTRODUCED_85 ::var_is_introduced :: is_defined_var;
var 0..3: X_INTRODUCED_87 ::var_is_introduced :: is_defined_var;
var 0..9: X_INTRODUCED_89 ::var_is_introduced :: is_defined_var;
var 0..10: X_INTRODUCED_90 ::var_is_introduced :: is_defined_var;
var 0..10: X_INTRODUCED_94 ::var_is_introduced :: is_defined_var;
var 0..10: X_INTRODUCED_96 ::var_is_introduced :: is_defined_var;
var 0..10: X_INTRODUCED_98 ::var_is_introduced :: is_defined_var;
var 0..10: X_INTRODUCED_100 ::var_is_introduced :: is_defined_var;
var 0..10: X_INTRODUCED_102 ::var_is_introduced :: is_defined_var;
var 0..10: X_INTRODUCED_104 ::var_is_introduced :: is_defined_var;
var 0..10: X_INTRODUCED_106 ::var_is_introduced :: is_defined_var;
var 0..10: X_INTRODUCED_108 ::var_is_introduced :: is_defined_var;
var 0..10: X_INTRODUCED_110 ::var_is_introduced :: is_defined_var;
array [1..10] of var 1..10: cities:: output_array([1..10]) = [X_INTRODUCED_0,X_INTRODUCED_1,X_INTRODUCED_2,X_INTRODUCED_3,X_INTRODUCED_4,X_INTRODUCED_5,X_INTRODUCED_6,X_INTRODUCED_7,X_INTRODUCED_8,X_INTRODUCED_9];
array [1..10] of var 0..10: tankIn = [0,X_INTRODUCED_11,X_INTRODUCED_12,X_INTRODUCED_13,X_INTRODUCED_14,X_INTRODUCED_15,X_INTRODUCED_16,X_INTRODUCED_17,X_INTRODUCED_18,X_INTRODUCED_19];
array [1..10] of var 0..10: fuelBought:: output_array([1..10]) = [X_INTRODUCED_20,X_INTRODUCED_21,X_INTRODUCED_22,X_INTRODUCED_23,X_INTRODUCED_24,X_INTRODUCED_25,X_INTRODUCED_26,X_INTRODUCED_27,X_INTRODUCED_28,X_INTRODUCED_29];
constraint int_eq(X_INTRODUCED_30,X_INTRODUCED_20);
constraint int_lin_eq(X_INTRODUCED_58,[X_INTRODUCED_31,X_INTRODUCED_11,X_INTRODUCED_21],0):: defines_var(X_INTRODUCED_31);
constraint int_lin_eq(X_INTRODUCED_58,[X_INTRODUCED_32,X_INTRODUCED_12,X_INTRODUCED_22],0):: defines_var(X_INTRODUCED_32);
constraint int_lin_eq(X_INTRODUCED_58,[X_INTRODUCED_33,X_INTRODUCED_13,X_INTRODUCED_23],0):: defines_var(X_INTRODUCED_33);
constraint int_lin_eq(X_INTRODUCED_58,[X_INTRODUCED_34,X_INTRODUCED_14,X_INTRODUCED_24],0):: defines_var(X_INTRODUCED_34);
constraint int_lin_eq(X_INTRODUCED_58,[X_INTRODUCED_35,X_INTRODUCED_15,X_INTRODUCED_25],0):: defines_var(X_INTRODUCED_35);
constraint int_lin_eq(X_INTRODUCED_58,[X_INTRODUCED_36,X_INTRODUCED_16,X_INTRODUCED_26],0):: defines_var(X_INTRODUCED_36);
constraint int_lin_eq(X_INTRODUCED_58,[X_INTRODUCED_37,X_INTRODUCED_17,X_INTRODUCED_27],0):: defines_var(X_INTRODUCED_37);
constraint int_lin_eq(X_INTRODUCED_58,[X_INTRODUCED_38,X_INTRODUCED_18,X_INTRODUCED_28],0):: defines_var(X_INTRODUCED_38);
constraint int_lin_eq(X_INTRODUCED_58,[X_INTRODUCED_39,X_INTRODUCED_19,X_INTRODUCED_29],0):: defines_var(X_INTRODUCED_39);
constraint array_int_element(X_INTRODUCED_0,X_INTRODUCED_69,X_INTRODUCED_70);
constraint int_lin_le(X_INTRODUCED_71,[X_INTRODUCED_30,X_INTRODUCED_70],0);
constraint array_int_element(X_INTRODUCED_1,X_INTRODUCED_72,X_INTRODUCED_73);
constraint int_lin_le(X_INTRODUCED_71,[X_INTRODUCED_31,X_INTRODUCED_73],0);
constraint array_int_element(X_INTRODUCED_2,X_INTRODUCED_74,X_INTRODUCED_75);
constraint int_lin_le(X_INTRODUCED_71,[X_INTRODUCED_32,X_INTRODUCED_75],0);
constraint array_int_element(X_INTRODUCED_3,X_INTRODUCED_76,X_INTRODUCED_77);
constraint int_lin_le(X_INTRODUCED_71,[X_INTRODUCED_33,X_INTRODUCED_77],0);
constraint array_int_element(X_INTRODUCED_4,X_INTRODUCED_78,X_INTRODUCED_79);
constraint int_lin_le(X_INTRODUCED_71,[X_INTRODUCED_34,X_INTRODUCED_79],0);
constraint array_int_element(X_INTRODUCED_5,X_INTRODUCED_80,X_INTRODUCED_81);
constraint int_lin_le(X_INTRODUCED_71,[X_INTRODUCED_35,X_INTRODUCED_81],0);
constraint array_int_element(X_INTRODUCED_6,X_INTRODUCED_82,X_INTRODUCED_83);
constraint int_lin_le(X_INTRODUCED_71,[X_INTRODUCED_36,X_INTRODUCED_83],0);
constraint array_int_element(X_INTRODUCED_7,X_INTRODUCED_84,X_INTRODUCED_85);
constraint int_lin_le(X_INTRODUCED_71,[X_INTRODUCED_37,X_INTRODUCED_85],0);
constraint array_int_element(X_INTRODUCED_8,X_INTRODUCED_86,X_INTRODUCED_87);
constraint int_lin_le(X_INTRODUCED_71,[X_INTRODUCED_38,X_INTRODUCED_87],0);
constraint array_int_element(X_INTRODUCED_9,X_INTRODUCED_88,X_INTRODUCED_89);
constraint int_lin_le(X_INTRODUCED_71,[X_INTRODUCED_39,X_INTRODUCED_89],0);
constraint array_var_int_element(X_INTRODUCED_0,tankIn,X_INTRODUCED_90):: defines_var(X_INTRODUCED_90);
constraint int_lin_eq(X_INTRODUCED_93,[X_INTRODUCED_90,X_INTRODUCED_30,X_INTRODUCED_70],0):: defines_var(X_INTRODUCED_90);
constraint array_var_int_element(X_INTRODUCED_1,tankIn,X_INTRODUCED_94):: defines_var(X_INTRODUCED_94);
constraint int_lin_eq(X_INTRODUCED_93,[X_INTRODUCED_94,X_INTRODUCED_31,X_INTRODUCED_73],0):: defines_var(X_INTRODUCED_94);
constraint array_var_int_element(X_INTRODUCED_2,tankIn,X_INTRODUCED_96):: defines_var(X_INTRODUCED_96);
constraint int_lin_eq(X_INTRODUCED_93,[X_INTRODUCED_96,X_INTRODUCED_32,X_INTRODUCED_75],0):: defines_var(X_INTRODUCED_96);
constraint array_var_int_element(X_INTRODUCED_3,tankIn,X_INTRODUCED_98):: defines_var(X_INTRODUCED_98);
constraint int_lin_eq(X_INTRODUCED_93,[X_INTRODUCED_98,X_INTRODUCED_33,X_INTRODUCED_77],0):: defines_var(X_INTRODUCED_98);
constraint array_var_int_element(X_INTRODUCED_4,tankIn,X_INTRODUCED_100):: defines_var(X_INTRODUCED_100);
constraint int_lin_eq(X_INTRODUCED_93,[X_INTRODUCED_100,X_INTRODUCED_34,X_INTRODUCED_79],0):: defines_var(X_INTRODUCED_100);
constraint array_var_int_element(X_INTRODUCED_5,tankIn,X_INTRODUCED_102):: defines_var(X_INTRODUCED_102);
constraint int_lin_eq(X_INTRODUCED_93,[X_INTRODUCED_102,X_INTRODUCED_35,X_INTRODUCED_81],0):: defines_var(X_INTRODUCED_102);
constraint array_var_int_element(X_INTRODUCED_6,tankIn,X_INTRODUCED_104):: defines_var(X_INTRODUCED_104);
constraint int_lin_eq(X_INTRODUCED_93,[X_INTRODUCED_104,X_INTRODUCED_36,X_INTRODUCED_83],0):: defines_var(X_INTRODUCED_104);
constraint array_var_int_element(X_INTRODUCED_7,tankIn,X_INTRODUCED_106):: defines_var(X_INTRODUCED_106);
constraint int_lin_eq(X_INTRODUCED_93,[X_INTRODUCED_106,X_INTRODUCED_37,X_INTRODUCED_85],0):: defines_var(X_INTRODUCED_106);
constraint array_var_int_element(X_INTRODUCED_8,tankIn,X_INTRODUCED_108):: defines_var(X_INTRODUCED_108);
constraint int_lin_eq(X_INTRODUCED_93,[X_INTRODUCED_108,X_INTRODUCED_38,X_INTRODUCED_87],0):: defines_var(X_INTRODUCED_108);
constraint array_var_int_element(X_INTRODUCED_9,tankIn,X_INTRODUCED_110):: defines_var(X_INTRODUCED_110);
constraint int_lin_eq(X_INTRODUCED_93,[X_INTRODUCED_110,X_INTRODUCED_39,X_INTRODUCED_89],0):: defines_var(X_INTRODUCED_110);
constraint jacop_subcircuit(cities);
constraint int_lin_eq([10,10,8,12,13,9,10,11,12,8,-1],[X_INTRODUCED_20,X_INTRODUCED_21,X_INTRODUCED_22,X_INTRODUCED_23,X_INTRODUCED_24,X_INTRODUCED_25,X_INTRODUCED_26,X_INTRODUCED_27,X_INTRODUCED_28,X_INTRODUCED_29,cost],0):: defines_var(cost);
solve :: int_search(cities,input_order,indomain_min,complete) minimize cost;
